0000000000000000
0000001110000000
0000000111100000
0000000111100000
0000000111100000
0000000011100000
0000000011100000
0000000011100000
0000000011100000
0000000011100000
0000000111100000
0000000111100000
0000000111100000
0000000111100000
0000000111100000
0000000000000000